p cnf 99 350
-1 2 -3 0
1 -2 -3 0
-1 -2 3 0
1 2 3 0
-5 6 -7 0
5 -6 -7 0
-5 -6 7 0
5 6 7 0
-8 -4 0
-8 7 0
4 -7 8 0
9 -3 0
9 8 0
3 -8 -9 0
-1 10 -11 0
1 -10 -11 0
-1 -10 11 0
1 10 11 0
-4 12 -13 0
4 -12 -13 0
-4 -12 13 0
4 12 13 0
14 13 0
14 -12 0
-13 12 -14 0
3 -6 -15 0
-3 6 -15 0
3 6 15 0
-3 -6 15 0
14 15 -16 0
-14 -15 -16 0
14 -15 16 0
-14 15 16 0
-17 -11 0
-17 -16 0
11 16 17 0
-18 9 0
-18 17 0
-9 -17 18 0
19 10 0
19 5 0
-10 -5 -19 0
-20 4 -21 0
20 -4 -21 0
-20 -4 21 0
20 4 21 0
-21 6 -22 0
21 -6 -22 0
-21 -6 22 0
21 6 22 0
23 -22 0
23 19 0
22 -19 -23 0
24 -19 0
24 23 0
19 -23 -24 0
25 18 0
25 -24 0
-18 24 -25 0
26 27 -28 0
-26 -27 -28 0
26 -27 28 0
-26 27 28 0
-29 -28 0
-29 1 0
28 -1 29 0
29 -8 -30 0
-29 8 -30 0
29 8 30 0
-29 -8 30 0
31 5 0
31 -14 0
-5 14 -31 0
5 20 -33 0
-5 -20 -33 0
5 -20 33 0
-5 20 33 0
-34 33 0
-34 -21 0
-33 21 34 0
32 34 -35 0
-32 -34 -35 0
32 -34 35 0
-32 34 35 0
-36 -31 0
-36 35 0
31 -35 36 0
-30 -36 -37 0
30 36 -37 0
-30 36 37 0
30 -36 37 0
39 5 0
39 38 0
-5 -38 -39 0
40 3 0
40 -39 0
-3 39 -40 0
41 -12 0
41 -10 0
12 10 -41 0
40 -41 -42 0
-40 41 -42 0
40 41 42 0
-40 -41 42 0
-43 37 0
-43 42 0
-37 -42 43 0
-44 25 0
-44 43 0
-25 -43 44 0
-45 -12 0
-45 20 0
12 -20 45 0
38 45 -46 0
-38 -45 -46 0
38 -45 46 0
-38 45 46 0
47 -39 0
47 46 0
39 -46 -47 0
-34 21 -48 0
34 -21 -48 0
-34 -21 48 0
34 21 48 0
49 23 0
49 -21 0
-23 21 -49 0
50 -48 0
50 49 0
48 -49 -50 0
-2 -14 -51 0
2 14 -51 0
-2 14 51 0
2 -14 51 0
50 -51 -52 0
-50 51 -52 0
50 51 52 0
-50 -51 52 0
-53 47 0
-53 -52 0
-47 52 53 0
-54 15 0
-54 -3 0
-15 3 54 0
-55 5 0
-55 33 0
-5 -33 55 0
38 12 -56 0
-38 -12 -56 0
38 -12 56 0
-38 12 56 0
57 19 0
57 56 0
-19 -56 -57 0
57 -58 -59 0
-57 58 -59 0
57 58 59 0
-57 -58 59 0
-60 55 0
-60 59 0
-55 -59 60 0
54 60 -61 0
-54 -60 -61 0
54 -60 61 0
-54 60 61 0
-58 3 -62 0
58 -3 -62 0
-58 -3 62 0
58 3 62 0
-63 5 0
-63 -1 0
-5 1 63 0
-10 -26 -64 0
10 26 -64 0
-10 26 64 0
10 -26 64 0
65 63 0
65 64 0
-63 -64 -65 0
-1 4 -66 0
1 -4 -66 0
-1 -4 66 0
1 4 66 0
4 -66 -67 0
-4 66 -67 0
4 66 67 0
-4 -66 67 0
65 67 -68 0
-65 -67 -68 0
65 -67 68 0
-65 67 68 0
-69 -62 0
-69 68 0
62 -68 69 0
70 -11 0
70 55 0
11 -55 -70 0
71 -58 0
71 -58 0
58 -71 0
-12 3 -72 0
12 -3 -72 0
-12 -3 72 0
12 3 72 0
-71 72 -73 0
71 -72 -73 0
-71 -72 73 0
71 72 73 0
11 74 -75 0
-11 -74 -75 0
11 -74 75 0
-11 74 75 0
76 75 0
76 27 0
-75 -27 -76 0
77 -73 0
77 -76 0
73 76 -77 0
70 77 -78 0
-70 -77 -78 0
70 -77 78 0
-70 77 78 0
79 -69 0
79 -78 0
69 78 -79 0
1 -49 -80 0
-1 49 -80 0
1 49 80 0
-1 -49 80 0
5 -34 -81 0
-5 34 -81 0
5 34 81 0
-5 -34 81 0
82 80 0
82 -81 0
-80 81 -82 0
-83 79 0
-83 82 0
-79 -82 83 0
-84 -61 0
-84 83 0
61 -83 84 0
85 -7 0
85 -7 0
7 -85 0
-86 -84 0
-86 -85 0
84 85 86 0
-87 53 0
-87 86 0
-53 -86 87 0
-88 -58 0
-88 21 0
58 -21 88 0
-6 -88 -89 0
6 88 -89 0
-6 88 89 0
6 -88 89 0
-90 89 0
-90 -16 0
-89 16 90 0
-91 71 0
-91 -20 0
-71 20 91 0
-26 34 -92 0
26 -34 -92 0
-26 -34 92 0
26 34 92 0
93 91 0
93 92 0
-91 -92 -93 0
72 1 -94 0
-72 -1 -94 0
72 -1 94 0
-72 1 94 0
95 -33 0
95 94 0
33 -94 -95 0
96 -93 0
96 -95 0
93 95 -96 0
97 -90 0
97 96 0
90 -96 -97 0
-98 87 0
-98 97 0
-87 -97 98 0
44 -98 -99 0
-44 98 -99 0
44 98 99 0
-44 -98 99 0
-47 -49 -6 83 -84 0
16 -76 -39 -71 0
74 -6 54 15 57 89 0
89 16 -65 -73 6 0
53 -99 48 -80 -84 -9 0
-56 -39 -64 74 0
-53 79 44 88 0
-61 79 -34 76 -15 0
-72 -41 16 11 0
-66 91 53 77 98 0
-35 69 -72 42 -26 0
43 -46 -33 0
-96 -98 -15 0
-39 52 -18 -31 96 92 0
74 14 33 68 9 -89 0
-3 97 65 -28 -44 0
93 -76 -5 0
46 68 42 24 -35 0
-6 15 -75 -74 0
79 -26 96 -72 0
26 23 -38 57 0
-69 2 0
-28 -33 0
89 84 -32 93 0
-1 75 -74 -29 0
52 -29 84 86 0
-69 37 -6 98 -67 -70 0
31 54 16 88 34 67 0
74 13 86 24 0
25 59 15 0
47 19 22 -16 0
-5 19 -62 52 22 -73 0
-25 -38 81 -48 76 0
39 42 44 0
16 -81 37 -90 0
51 -44 0
-55 -15 45 -71 79 0
-66 82 -46 -80 0
17 78 7 -19 -62 -5 0
-11 19 -72 24 -92 0
-7 74 -82 0
18 15 -59 -35 0
-34 59 0
49 -88 19 -28 97 0
-15 -48 24 -85 0
78 -57 18 33 5 0
48 52 -80 51 0
-49 20 -82 12 19 59 0
-43 -73 -94 28 57 -74 0
14 19 0
-24 -90 -6 0
-19 -85 -7 0
93 -18 0
-8 -3 0
-94 -76 -19 92 0
-65 29 -11 -86 -73 0
49 -48 -89 39 -99 0
89 -51 1 -75 42 0
99 0
